 nbProduits = 7;
 nbClients = 15;
 capaProd = [ 150 , 90 , 110 , 70 , 40 , 40 , 50 ];
 capaCrossdock = 1900;
 demande = [
   [ 167 , 115 ,  31 ,  95 , 111 ,  54 ,   0 ,  61 ,   0 , 158 , 201 , 183 , 293 ,   0 ,   0 ] ,
   [   0 ,  78 ,   0 , 121 ,   0 , 280 ,  43 ,   0 ,   0 ,   0 ,  58 ,  55 ,   0 , 108 ,  61 ] ,
   [ 142 ,   0 ,   0 ,   0 ,   0 ,  52 ,  43 ,   0 ,  91 , 256 ,   0 ,  69 , 145 ,  36 , 255 ] ,
   [   0 ,   0 ,  26 ,   0 ,   0 ,   0 ,  72 ,   0 , 191 ,  80 ,   0 ,  79 ,   0 ,   0 ,  47 ] ,
   [   0 ,   0 ,   0 ,   0 ,  47 ,   0 , 108 ,   0 ,  47 ,  68 ,   0 ,   0 ,   0 ,   0 ,  65 ] ,
   [   0 ,   0 ,   0 ,   0 ,  81 ,   0 , 146 ,   0 ,   0 ,   0 ,   0 ,   0 ,   0 ,   0 ,   0 ] ,
   [  46 ,  50 ,  28 , 100 ,  78 ,  37 ,   0 ,   0 ,   0 ,   0 ,   0 ,   0 ,  93 ,   0 ,  75 ]
 ];
 a = [  7 ,  8 ,  4 ,  9 , 11 ,  8 ,  9 ,  4 ,  5 ,  9 ,  2 ,  8 ,  8 ,  9 ,  1 ];
 b = [ 13 , 14 , 16 , 11 , 17 , 12 , 11 , 11 , 15 , 11 , 11 , 10 , 12 , 13 , 13 ];
 penalite = [ 1.9 , 2.6 , 0.9 , 1.6 , 1.5 , 1.5 , 1.6 , 1.3 , 0.9 , 1.9 , 1.8 , 0.8 , 1.3 , 2.0 , 1.7 ];
 coutStockUsine = [ 0.1 , 0.2 , 0.2 , 0.1 , 0.1 , 0.2 , 0.2 ];
 coutCamionUsine = [ 520.0 , 510.0 , 520.0 , 510.0 , 550.0 , 650.0 , 100.0 ];
 coutCamionClient = [ 500.0 , 160.0 , 400.0 , 400.0 , 690.0 , 630.0 , 850.0 , 750.0 , 450.0 , 100.0 , 1130.0 , 820.0 , 490.0 , 550.0 , 340.0 ];
